multiobj/instances/uniform/Ter.7.2.0.40.3.in
7 2
0 813 105 728 495 748 590 
813 0 377 463 378 892 566 
105 377 0 940 425 230 694 
728 463 940 0 205 867 517 
495 378 425 205 0 399 457 
748 892 230 867 399 0 171 
590 566 694 517 457 171 0 
0 600 871 39 224 662 24 
600 0 60 221 765 590 320 
871 60 0 492 954 124 295 
39 221 492 0 883 15 184 
224 765 954 883 0 122 532 
662 590 124 15 122 0 23 
24 320 295 184 532 23 0 
0 533 828 86 156 864 213 
533 0 367 268 229 989 387 
828 367 0 333 502 608 898 
86 268 333 0 278 567 662 
156 229 502 278 0 51 884 
864 989 608 567 51 0 306 
213 387 898 662 884 306 0 
