multiobj/solutions/Ter.7.2.0.40.3.out
5 2
5 2 6 3 4 0 1 
6343186 9487898 
5 0 6 3 4 2 1 
6553926 9417438 
5 2 6 1 4 0 3 
6594802 9394866 
5 0 6 1 4 2 3 
6687606 8831926 
5 0 6 1 3 2 4 
7382056 8329496 
